70
1 0 5
2 0 12
2 1 9
3 0 11
3 1 1
3 2 8
4 0 9
4 1 3
4 2 2
4 3 10
5 0 2
5 1 5
5 2 11
5 3 7
5 4 11
6 0 2
6 1 9
6 2 4
6 3 7
6 4 1
6 5 7
7 0 11
7 1 9
7 2 1
7 3 10
7 4 4
7 5 1
7 6 3
8 0 10
8 1 1
8 2 3
8 3 12
8 4 7
8 5 9
8 6 4
8 7 3
9 0 3
9 1 11
9 2 10
9 3 8
9 4 2
9 5 7
9 6 9
9 7 9
9 8 3
10 0 9
10 1 10
10 2 7
10 3 5
10 4 9
10 5 1
10 6 7
10 7 5
10 8 2
10 9 5
11 0 2
11 1 7
11 2 7
11 3 7
11 4 8
11 5 10
11 6 2
11 7 7
11 8 4
11 9 12
11 10 7
12 0 1
12 1 9
12 2 5
12 3 12
12 4 2
12 5 3
12 6 4
12 7 4
12 8 3
12 9 2
12 10 10
12 11 10
13 0 12
13 1 10
13 2 8
13 3 8
13 4 8
13 5 3
13 6 11
13 7 6
13 8 8
13 9 2
13 10 5
13 11 2
13 12 5
14 0 1
14 1 10
14 2 11
14 3 12
14 4 11
14 5 4
14 6 12
14 7 6
14 8 6
14 9 8
14 10 12
14 11 1
14 12 12
14 13 5
15 0 1
15 1 4
15 2 10
15 3 9
15 4 9
15 5 10
15 6 11
15 7 1
15 8 1
15 9 4
15 10 11
15 11 12
15 12 2
15 13 8
15 14 7
16 0 7
16 1 6
16 2 10
16 3 1
16 4 6
16 5 6
16 6 7
16 7 2
16 8 3
16 9 3
16 10 12
16 11 1
16 12 2
16 13 5
16 14 8
16 15 12
17 0 2
17 1 1
17 2 3
17 3 9
17 4 4
17 5 3
17 6 12
17 7 11
17 8 12
17 9 9
17 10 12
17 11 9
17 12 12
17 13 2
17 14 3
17 15 8
17 16 7
18 0 11
18 1 1
18 2 12
18 3 5
18 4 8
18 5 1
18 6 2
18 7 11
18 8 5
18 9 7
18 10 2
18 11 10
18 12 9
18 13 1
18 14 2
18 15 9
18 16 2
18 17 7
19 0 4
19 1 4
19 2 12
19 3 4
19 4 5
19 5 10
19 6 11
19 7 11
19 8 11
19 9 10
19 10 8
19 11 9
19 12 3
19 13 4
19 14 2
19 15 7
19 16 7
19 17 4
19 18 2
20 0 5
20 1 7
20 2 10
20 3 4
20 4 1
20 5 4
20 6 2
20 7 3
20 8 9
20 9 10
20 10 10
20 11 12
20 12 8
20 13 7
20 14 7
20 15 2
20 16 3
20 17 7
20 18 11
20 19 10
21 0 2
21 1 2
21 2 12
21 3 12
21 4 5
21 5 6
21 6 5
21 7 5
21 8 10
21 9 8
21 10 2
21 11 6
21 12 4
21 13 4
21 14 5
21 15 5
21 16 9
21 17 7
21 18 4
21 19 7
21 20 4
22 0 3
22 1 1
22 2 9
22 3 9
22 4 1
22 5 5
22 6 7
22 7 10
22 8 3
22 9 11
22 10 5
22 11 1
22 12 8
22 13 1
22 14 3
22 15 2
22 16 4
22 17 3
22 18 6
22 19 1
22 20 8
22 21 7
23 0 4
23 1 11
23 2 9
23 3 6
23 4 11
23 5 9
23 6 11
23 7 8
23 8 2
23 9 1
23 10 6
23 11 8
23 12 8
23 13 2
23 14 12
23 15 3
23 16 12
23 17 11
23 18 1
23 19 12
23 20 2
23 21 1
23 22 7
24 0 7
24 1 9
24 2 3
24 3 3
24 4 1
24 5 11
24 6 1
24 7 6
24 8 4
24 9 7
24 10 7
24 11 1
24 12 6
24 13 11
24 14 9
24 15 5
24 16 6
24 17 4
24 18 11
24 19 11
24 20 11
24 21 3
24 22 5
24 23 11
25 0 9
25 1 7
25 2 4
25 3 12
25 4 8
25 5 5
25 6 6
25 7 4
25 8 3
25 9 9
25 10 1
25 11 1
25 12 5
25 13 7
25 14 3
25 15 1
25 16 4
25 17 6
25 18 3
25 19 5
25 20 4
25 21 11
25 22 1
25 23 4
25 24 7
26 0 9
26 1 6
26 2 1
26 3 6
26 4 2
26 5 3
26 6 12
26 7 10
26 8 1
26 9 12
26 10 9
26 11 4
26 12 3
26 13 9
26 14 1
26 15 3
26 16 4
26 17 6
26 18 4
26 19 10
26 20 10
26 21 12
26 22 11
26 23 2
26 24 12
26 25 8
27 0 8
27 1 9
27 2 3
27 3 8
27 4 2
27 5 11
27 6 10
27 7 6
27 8 12
27 9 2
27 10 6
27 11 11
27 12 1
27 13 12
27 14 5
27 15 12
27 16 9
27 17 2
27 18 3
27 19 7
27 20 8
27 21 2
27 22 9
27 23 9
27 24 12
27 25 6
27 26 11
28 0 10
28 1 1
28 2 8
28 3 9
28 4 3
28 5 1
28 6 5
28 7 2
28 8 3
28 9 12
28 10 2
28 11 11
28 12 10
28 13 2
28 14 2
28 15 1
28 16 5
28 17 1
28 18 2
28 19 5
28 20 12
28 21 9
28 22 5
28 23 9
28 24 2
28 25 5
28 26 4
28 27 3
29 0 1
29 1 5
29 2 11
29 3 12
29 4 5
29 5 4
29 6 7
29 7 1
29 8 7
29 9 1
29 10 3
29 11 12
29 12 8
29 13 7
29 14 11
29 15 5
29 16 7
29 17 11
29 18 8
29 19 2
29 20 7
29 21 11
29 22 4
29 23 1
29 24 3
29 25 2
29 26 6
29 27 11
29 28 3
30 0 2
30 1 9
30 2 9
30 3 3
30 4 7
30 5 6
30 6 3
30 7 12
30 8 3
30 9 5
30 10 9
30 11 3
30 12 11
30 13 2
30 14 5
30 15 12
30 16 7
30 17 4
30 18 10
30 19 4
30 20 5
30 21 4
30 22 4
30 23 1
30 24 9
30 25 2
30 26 10
30 27 7
30 28 3
30 29 1
31 0 4
31 1 5
31 2 4
31 3 8
31 4 6
31 5 5
31 6 12
31 7 7
31 8 3
31 9 2
31 10 10
31 11 9
31 12 3
31 13 3
31 14 1
31 15 8
31 16 4
31 17 6
31 18 4
31 19 12
31 20 2
31 21 2
31 22 12
31 23 11
31 24 11
31 25 9
31 26 11
31 27 7
31 28 7
31 29 10
31 30 4
32 0 7
32 1 3
32 2 1
32 3 2
32 4 3
32 5 6
32 6 7
32 7 4
32 8 4
32 9 8
32 10 2
32 11 9
32 12 4
32 13 9
32 14 1
32 15 12
32 16 12
32 17 3
32 18 1
32 19 7
32 20 5
32 21 9
32 22 1
32 23 1
32 24 3
32 25 8
32 26 10
32 27 8
32 28 9
32 29 12
32 30 10
32 31 7
33 0 10
33 1 10
33 2 9
33 3 12
33 4 2
33 5 5
33 6 4
33 7 1
33 8 4
33 9 12
33 10 4
33 11 8
33 12 3
33 13 10
33 14 9
33 15 2
33 16 9
33 17 7
33 18 3
33 19 3
33 20 8
33 21 10
33 22 11
33 23 7
33 24 7
33 25 6
33 26 9
33 27 9
33 28 2
33 29 6
33 30 9
33 31 10
33 32 6
34 0 6
34 1 3
34 2 11
34 3 2
34 4 3
34 5 8
34 6 1
34 7 3
34 8 3
34 9 10
34 10 1
34 11 1
34 12 8
34 13 1
34 14 1
34 15 8
34 16 3
34 17 2
34 18 9
34 19 2
34 20 3
34 21 7
34 22 8
34 23 4
34 24 1
34 25 10
34 26 9
34 27 1
34 28 6
34 29 11
34 30 10
34 31 4
34 32 5
34 33 6
35 0 10
35 1 2
35 2 11
35 3 2
35 4 4
35 5 6
35 6 6
35 7 1
35 8 10
35 9 12
35 10 4
35 11 11
35 12 5
35 13 6
35 14 7
35 15 2
35 16 11
35 17 3
35 18 12
35 19 3
35 20 7
35 21 7
35 22 7
35 23 10
35 24 3
35 25 2
35 26 7
35 27 4
35 28 7
35 29 2
35 30 6
35 31 4
35 32 5
35 33 3
35 34 8
36 0 3
36 1 7
36 2 12
36 3 7
36 4 10
36 5 1
36 6 12
36 7 11
36 8 1
36 9 6
36 10 1
36 11 10
36 12 7
36 13 8
36 14 12
36 15 12
36 16 6
36 17 1
36 18 5
36 19 3
36 20 8
36 21 1
36 22 4
36 23 8
36 24 7
36 25 3
36 26 11
36 27 1
36 28 1
36 29 6
36 30 11
36 31 3
36 32 5
36 33 1
36 34 8
36 35 10
37 0 3
37 1 5
37 2 2
37 3 5
37 4 10
37 5 12
37 6 9
37 7 8
37 8 1
37 9 5
37 10 5
37 11 10
37 12 3
37 13 2
37 14 4
37 15 12
37 16 2
37 17 4
37 18 3
37 19 12
37 20 2
37 21 3
37 22 3
37 23 1
37 24 10
37 25 4
37 26 6
37 27 1
37 28 2
37 29 11
37 30 2
37 31 6
37 32 1
37 33 1
37 34 7
37 35 5
37 36 8
38 0 6
38 1 4
38 2 2
38 3 7
38 4 1
38 5 8
38 6 12
38 7 4
38 8 7
38 9 5
38 10 3
38 11 5
38 12 9
38 13 11
38 14 7
38 15 5
38 16 10
38 17 2
38 18 2
38 19 11
38 20 2
38 21 6
38 22 2
38 23 2
38 24 1
38 25 4
38 26 9
38 27 1
38 28 3
38 29 8
38 30 8
38 31 8
38 32 3
38 33 3
38 34 4
38 35 11
38 36 5
38 37 5
39 0 1
39 1 5
39 2 11
39 3 5
39 4 6
39 5 11
39 6 4
39 7 8
39 8 2
39 9 1
39 10 9
39 11 7
39 12 4
39 13 7
39 14 2
39 15 12
39 16 9
39 17 10
39 18 11
39 19 6
39 20 12
39 21 10
39 22 11
39 23 1
39 24 10
39 25 8
39 26 11
39 27 8
39 28 6
39 29 4
39 30 10
39 31 7
39 32 3
39 33 1
39 34 9
39 35 11
39 36 10
39 37 8
39 38 3
40 0 3
40 1 4
40 2 10
40 3 10
40 4 2
40 5 2
40 6 7
40 7 12
40 8 6
40 9 10
40 10 11
40 11 10
40 12 3
40 13 9
40 14 12
40 15 2
40 16 4
40 17 11
40 18 4
40 19 11
40 20 12
40 21 7
40 22 1
40 23 12
40 24 9
40 25 6
40 26 2
40 27 8
40 28 9
40 29 9
40 30 4
40 31 6
40 32 4
40 33 10
40 34 1
40 35 7
40 36 10
40 37 1
40 38 12
40 39 5
41 0 4
41 1 1
41 2 11
41 3 11
41 4 9
41 5 4
41 6 7
41 7 8
41 8 6
41 9 2
41 10 6
41 11 6
41 12 7
41 13 12
41 14 7
41 15 8
41 16 5
41 17 1
41 18 10
41 19 7
41 20 6
41 21 12
41 22 5
41 23 1
41 24 1
41 25 9
41 26 11
41 27 3
41 28 6
41 29 7
41 30 9
41 31 9
41 32 7
41 33 12
41 34 5
41 35 6
41 36 12
41 37 3
41 38 10
41 39 12
41 40 8
42 0 10
42 1 1
42 2 11
42 3 1
42 4 10
42 5 5
42 6 12
42 7 11
42 8 4
42 9 6
42 10 9
42 11 6
42 12 8
42 13 6
42 14 4
42 15 10
42 16 3
42 17 10
42 18 10
42 19 7
42 20 11
42 21 4
42 22 1
42 23 3
42 24 3
42 25 10
42 26 12
42 27 10
42 28 2
42 29 10
42 30 11
42 31 11
42 32 3
42 33 4
42 34 6
42 35 8
42 36 5
42 37 4
42 38 6
42 39 8
42 40 1
42 41 7
43 0 4
43 1 3
43 2 6
43 3 2
43 4 1
43 5 12
43 6 4
43 7 6
43 8 3
43 9 1
43 10 1
43 11 3
43 12 3
43 13 9
43 14 8
43 15 11
43 16 8
43 17 4
43 18 3
43 19 2
43 20 5
43 21 6
43 22 4
43 23 1
43 24 2
43 25 1
43 26 10
43 27 10
43 28 7
43 29 3
43 30 7
43 31 12
43 32 9
43 33 4
43 34 11
43 35 6
43 36 6
43 37 4
43 38 8
43 39 9
43 40 9
43 41 6
43 42 12
44 0 2
44 1 1
44 2 8
44 3 5
44 4 10
44 5 9
44 6 7
44 7 3
44 8 6
44 9 8
44 10 2
44 11 5
44 12 8
44 13 1
44 14 9
44 15 8
44 16 12
44 17 3
44 18 11
44 19 11
44 20 10
44 21 8
44 22 5
44 23 5
44 24 10
44 25 10
44 26 11
44 27 8
44 28 6
44 29 10
44 30 4
44 31 7
44 32 10
44 33 9
44 34 1
44 35 5
44 36 1
44 37 8
44 38 1
44 39 7
44 40 5
44 41 10
44 42 11
44 43 5
45 0 5
45 1 3
45 2 3
45 3 9
45 4 9
45 5 7
45 6 4
45 7 11
45 8 12
45 9 8
45 10 11
45 11 5
45 12 4
45 13 11
45 14 7
45 15 11
45 16 12
45 17 5
45 18 12
45 19 1
45 20 9
45 21 3
45 22 9
45 23 11
45 24 2
45 25 5
45 26 12
45 27 8
45 28 8
45 29 5
45 30 10
45 31 4
45 32 6
45 33 1
45 34 11
45 35 7
45 36 1
45 37 10
45 38 8
45 39 5
45 40 11
45 41 8
45 42 9
45 43 7
45 44 10
46 0 10
46 1 10
46 2 1
46 3 3
46 4 1
46 5 1
46 6 1
46 7 7
46 8 8
46 9 4
46 10 3
46 11 1
46 12 4
46 13 1
46 14 11
46 15 6
46 16 12
46 17 6
46 18 1
46 19 4
46 20 6
46 21 6
46 22 2
46 23 12
46 24 5
46 25 5
46 26 8
46 27 4
46 28 8
46 29 7
46 30 12
46 31 1
46 32 7
46 33 12
46 34 1
46 35 9
46 36 3
46 37 6
46 38 8
46 39 12
46 40 1
46 41 1
46 42 8
46 43 11
46 44 8
46 45 12
47 0 10
47 1 7
47 2 11
47 3 8
47 4 8
47 5 6
47 6 1
47 7 2
47 8 7
47 9 11
47 10 3
47 11 8
47 12 11
47 13 7
47 14 8
47 15 12
47 16 1
47 17 11
47 18 11
47 19 9
47 20 7
47 21 12
47 22 12
47 23 7
47 24 7
47 25 5
47 26 9
47 27 10
47 28 7
47 29 2
47 30 3
47 31 4
47 32 6
47 33 4
47 34 2
47 35 2
47 36 5
47 37 1
47 38 11
47 39 7
47 40 11
47 41 8
47 42 10
47 43 12
47 44 1
47 45 8
47 46 9
48 0 9
48 1 4
48 2 8
48 3 8
48 4 8
48 5 7
48 6 6
48 7 12
48 8 5
48 9 8
48 10 4
48 11 9
48 12 4
48 13 9
48 14 3
48 15 3
48 16 10
48 17 4
48 18 10
48 19 6
48 20 2
48 21 4
48 22 8
48 23 4
48 24 1
48 25 4
48 26 7
48 27 6
48 28 3
48 29 7
48 30 6
48 31 5
48 32 8
48 33 8
48 34 8
48 35 9
48 36 12
48 37 2
48 38 10
48 39 8
48 40 7
48 41 5
48 42 6
48 43 3
48 44 11
48 45 4
48 46 4
48 47 7
49 0 8
49 1 7
49 2 4
49 3 8
49 4 2
49 5 8
49 6 10
49 7 5
49 8 10
49 9 5
49 10 1
49 11 5
49 12 7
49 13 10
49 14 2
49 15 8
49 16 2
49 17 5
49 18 1
49 19 6
49 20 3
49 21 1
49 22 1
49 23 2
49 24 12
49 25 10
49 26 10
49 27 6
49 28 5
49 29 2
49 30 12
49 31 10
49 32 5
49 33 1
49 34 1
49 35 10
49 36 6
49 37 10
49 38 10
49 39 11
49 40 1
49 41 2
49 42 2
49 43 9
49 44 1
49 45 11
49 46 9
49 47 12
49 48 12
50 0 7
50 1 8
50 2 8
50 3 9
50 4 7
50 5 7
50 6 12
50 7 3
50 8 12
50 9 12
50 10 5
50 11 5
50 12 10
50 13 9
50 14 10
50 15 3
50 16 11
50 17 9
50 18 11
50 19 1
50 20 12
50 21 12
50 22 5
50 23 3
50 24 4
50 25 1
50 26 12
50 27 6
50 28 5
50 29 10
50 30 12
50 31 11
50 32 12
50 33 2
50 34 8
50 35 10
50 36 9
50 37 6
50 38 7
50 39 5
50 40 7
50 41 1
50 42 2
50 43 6
50 44 11
50 45 12
50 46 4
50 47 3
50 48 2
50 49 3
51 0 11
51 1 12
51 2 6
51 3 12
51 4 6
51 5 11
51 6 4
51 7 4
51 8 12
51 9 7
51 10 8
51 11 5
51 12 11
51 13 2
51 14 7
51 15 4
51 16 7
51 17 8
51 18 6
51 19 9
51 20 12
51 21 12
51 22 9
51 23 3
51 24 11
51 25 2
51 26 11
51 27 2
51 28 7
51 29 2
51 30 3
51 31 5
51 32 12
51 33 1
51 34 10
51 35 9
51 36 3
51 37 6
51 38 9
51 39 10
51 40 3
51 41 2
51 42 12
51 43 2
51 44 4
51 45 5
51 46 1
51 47 11
51 48 10
51 49 6
51 50 11
52 0 3
52 1 7
52 2 11
52 3 9
52 4 5
52 5 6
52 6 1
52 7 10
52 8 12
52 9 10
52 10 3
52 11 12
52 12 7
52 13 4
52 14 8
52 15 12
52 16 11
52 17 8
52 18 8
52 19 1
52 20 10
52 21 7
52 22 6
52 23 10
52 24 7
52 25 11
52 26 2
52 27 10
52 28 3
52 29 4
52 30 2
52 31 2
52 32 10
52 33 8
52 34 12
52 35 6
52 36 8
52 37 10
52 38 6
52 39 10
52 40 8
52 41 7
52 42 7
52 43 12
52 44 1
52 45 12
52 46 5
52 47 6
52 48 7
52 49 8
52 50 1
52 51 2
53 0 8
53 1 2
53 2 1
53 3 7
53 4 4
53 5 12
53 6 4
53 7 5
53 8 1
53 9 10
53 10 9
53 11 3
53 12 10
53 13 12
53 14 8
53 15 1
53 16 6
53 17 11
53 18 11
53 19 9
53 20 9
53 21 5
53 22 12
53 23 3
53 24 4
53 25 1
53 26 7
53 27 8
53 28 11
53 29 7
53 30 3
53 31 4
53 32 2
53 33 8
53 34 2
53 35 5
53 36 10
53 37 2
53 38 7
53 39 2
53 40 10
53 41 1
53 42 1
53 43 12
53 44 10
53 45 10
53 46 7
53 47 11
53 48 9
53 49 3
53 50 8
53 51 3
53 52 8
54 0 4
54 1 8
54 2 3
54 3 12
54 4 11
54 5 12
54 6 7
54 7 10
54 8 9
54 9 12
54 10 5
54 11 5
54 12 4
54 13 8
54 14 8
54 15 2
54 16 2
54 17 10
54 18 12
54 19 7
54 20 8
54 21 8
54 22 9
54 23 2
54 24 1
54 25 6
54 26 9
54 27 10
54 28 8
54 29 11
54 30 7
54 31 7
54 32 2
54 33 8
54 34 11
54 35 1
54 36 5
54 37 5
54 38 5
54 39 8
54 40 3
54 41 1
54 42 1
54 43 7
54 44 5
54 45 4
54 46 9
54 47 8
54 48 3
54 49 12
54 50 10
54 51 7
54 52 10
54 53 1
55 0 1
55 1 10
55 2 6
55 3 8
55 4 12
55 5 1
55 6 10
55 7 8
55 8 4
55 9 12
55 10 2
55 11 9
55 12 11
55 13 3
55 14 10
55 15 10
55 16 6
55 17 10
55 18 7
55 19 12
55 20 10
55 21 3
55 22 11
55 23 2
55 24 7
55 25 4
55 26 1
55 27 1
55 28 8
55 29 1
55 30 8
55 31 12
55 32 10
55 33 7
55 34 8
55 35 7
55 36 9
55 37 5
55 38 11
55 39 3
55 40 12
55 41 2
55 42 7
55 43 11
55 44 1
55 45 9
55 46 3
55 47 12
55 48 8
55 49 5
55 50 3
55 51 7
55 52 3
55 53 4
55 54 3
56 0 3
56 1 5
56 2 9
56 3 1
56 4 10
56 5 8
56 6 8
56 7 3
56 8 4
56 9 1
56 10 4
56 11 6
56 12 7
56 13 10
56 14 3
56 15 4
56 16 1
56 17 8
56 18 12
56 19 8
56 20 2
56 21 11
56 22 8
56 23 5
56 24 5
56 25 12
56 26 1
56 27 7
56 28 7
56 29 12
56 30 7
56 31 8
56 32 2
56 33 4
56 34 9
56 35 5
56 36 9
56 37 4
56 38 4
56 39 1
56 40 3
56 41 3
56 42 4
56 43 1
56 44 8
56 45 5
56 46 10
56 47 6
56 48 4
56 49 8
56 50 9
56 51 12
56 52 12
56 53 4
56 54 3
56 55 7
57 0 11
57 1 5
57 2 2
57 3 2
57 4 6
57 5 5
57 6 5
57 7 5
57 8 10
57 9 12
57 10 12
57 11 9
57 12 4
57 13 11
57 14 8
57 15 9
57 16 8
57 17 12
57 18 1
57 19 9
57 20 12
57 21 7
57 22 1
57 23 1
57 24 5
57 25 4
57 26 4
57 27 3
57 28 3
57 29 5
57 30 9
57 31 8
57 32 9
57 33 8
57 34 12
57 35 6
57 36 11
57 37 12
57 38 4
57 39 10
57 40 12
57 41 6
57 42 5
57 43 3
57 44 10
57 45 1
57 46 1
57 47 6
57 48 3
57 49 11
57 50 5
57 51 11
57 52 8
57 53 12
57 54 3
57 55 1
57 56 10
58 0 4
58 1 7
58 2 11
58 3 8
58 4 3
58 5 10
58 6 2
58 7 5
58 8 5
58 9 1
58 10 12
58 11 7
58 12 3
58 13 9
58 14 4
58 15 2
58 16 7
58 17 5
58 18 11
58 19 3
58 20 5
58 21 9
58 22 2
58 23 5
58 24 2
58 25 1
58 26 2
58 27 2
58 28 8
58 29 5
58 30 3
58 31 10
58 32 9
58 33 2
58 34 11
58 35 7
58 36 11
58 37 7
58 38 12
58 39 1
58 40 5
58 41 1
58 42 2
58 43 9
58 44 2
58 45 6
58 46 1
58 47 12
58 48 8
58 49 9
58 50 12
58 51 6
58 52 8
58 53 12
58 54 7
58 55 9
58 56 2
58 57 8
59 0 6
59 1 4
59 2 4
59 3 5
59 4 1
59 5 10
59 6 6
59 7 10
59 8 1
59 9 4
59 10 10
59 11 11
59 12 12
59 13 12
59 14 10
59 15 2
59 16 8
59 17 12
59 18 2
59 19 11
59 20 6
59 21 2
59 22 3
59 23 2
59 24 6
59 25 6
59 26 6
59 27 4
59 28 4
59 29 11
59 30 1
59 31 6
59 32 6
59 33 8
59 34 7
59 35 2
59 36 9
59 37 3
59 38 11
59 39 10
59 40 2
59 41 7
59 42 3
59 43 3
59 44 4
59 45 11
59 46 1
59 47 10
59 48 9
59 49 7
59 50 5
59 51 9
59 52 11
59 53 8
59 54 9
59 55 11
59 56 2
59 57 5
59 58 1
60 0 9
60 1 4
60 2 12
60 3 8
60 4 5
60 5 6
60 6 5
60 7 10
60 8 9
60 9 9
60 10 4
60 11 9
60 12 8
60 13 2
60 14 12
60 15 5
60 16 3
60 17 6
60 18 10
60 19 4
60 20 8
60 21 10
60 22 10
60 23 8
60 24 6
60 25 4
60 26 1
60 27 3
60 28 6
60 29 11
60 30 9
60 31 1
60 32 6
60 33 6
60 34 6
60 35 10
60 36 2
60 37 8
60 38 7
60 39 10
60 40 6
60 41 7
60 42 5
60 43 4
60 44 4
60 45 2
60 46 10
60 47 2
60 48 4
60 49 11
60 50 4
60 51 6
60 52 11
60 53 6
60 54 8
60 55 11
60 56 9
60 57 1
60 58 5
60 59 8
61 0 7
61 1 3
61 2 5
61 3 5
61 4 10
61 5 8
61 6 10
61 7 4
61 8 3
61 9 1
61 10 6
61 11 7
61 12 2
61 13 2
61 14 10
61 15 7
61 16 10
61 17 12
61 18 12
61 19 6
61 20 7
61 21 7
61 22 11
61 23 4
61 24 8
61 25 9
61 26 6
61 27 12
61 28 12
61 29 4
61 30 8
61 31 1
61 32 12
61 33 8
61 34 3
61 35 4
61 36 8
61 37 9
61 38 10
61 39 6
61 40 8
61 41 4
61 42 5
61 43 5
61 44 4
61 45 12
61 46 8
61 47 8
61 48 12
61 49 9
61 50 12
61 51 2
61 52 3
61 53 5
61 54 9
61 55 9
61 56 8
61 57 1
61 58 10
61 59 3
61 60 10
62 0 12
62 1 7
62 2 11
62 3 3
62 4 5
62 5 8
62 6 7
62 7 11
62 8 10
62 9 8
62 10 8
62 11 2
62 12 12
62 13 2
62 14 4
62 15 2
62 16 2
62 17 12
62 18 5
62 19 5
62 20 7
62 21 5
62 22 9
62 23 2
62 24 6
62 25 2
62 26 9
62 27 7
62 28 7
62 29 8
62 30 2
62 31 5
62 32 2
62 33 2
62 34 7
62 35 3
62 36 10
62 37 3
62 38 3
62 39 9
62 40 7
62 41 6
62 42 12
62 43 4
62 44 5
62 45 12
62 46 12
62 47 12
62 48 8
62 49 2
62 50 4
62 51 4
62 52 3
62 53 10
62 54 7
62 55 12
62 56 1
62 57 10
62 58 11
62 59 10
62 60 3
62 61 7
63 0 4
63 1 5
63 2 9
63 3 7
63 4 7
63 5 11
63 6 9
63 7 8
63 8 6
63 9 7
63 10 2
63 11 10
63 12 1
63 13 1
63 14 4
63 15 11
63 16 4
63 17 12
63 18 4
63 19 10
63 20 9
63 21 2
63 22 12
63 23 11
63 24 4
63 25 2
63 26 11
63 27 6
63 28 2
63 29 5
63 30 1
63 31 1
63 32 5
63 33 12
63 34 4
63 35 4
63 36 7
63 37 12
63 38 10
63 39 11
63 40 2
63 41 2
63 42 6
63 43 5
63 44 10
63 45 4
63 46 8
63 47 8
63 48 10
63 49 9
63 50 5
63 51 11
63 52 12
63 53 8
63 54 9
63 55 12
63 56 6
63 57 4
63 58 4
63 59 8
63 60 1
63 61 1
63 62 2
64 0 4
64 1 6
64 2 4
64 3 9
64 4 9
64 5 7
64 6 5
64 7 1
64 8 3
64 9 4
64 10 2
64 11 4
64 12 10
64 13 8
64 14 7
64 15 10
64 16 2
64 17 8
64 18 4
64 19 2
64 20 4
64 21 10
64 22 7
64 23 4
64 24 8
64 25 5
64 26 3
64 27 1
64 28 5
64 29 5
64 30 8
64 31 10
64 32 8
64 33 6
64 34 7
64 35 7
64 36 6
64 37 3
64 38 3
64 39 5
64 40 11
64 41 1
64 42 10
64 43 6
64 44 5
64 45 8
64 46 8
64 47 9
64 48 4
64 49 12
64 50 1
64 51 6
64 52 7
64 53 12
64 54 5
64 55 9
64 56 4
64 57 7
64 58 11
64 59 2
64 60 10
64 61 7
64 62 12
64 63 11
65 0 9
65 1 8
65 2 11
65 3 12
65 4 6
65 5 7
65 6 2
65 7 3
65 8 6
65 9 12
65 10 4
65 11 12
65 12 2
65 13 9
65 14 3
65 15 6
65 16 5
65 17 10
65 18 5
65 19 10
65 20 1
65 21 12
65 22 6
65 23 12
65 24 4
65 25 7
65 26 12
65 27 5
65 28 8
65 29 5
65 30 4
65 31 12
65 32 7
65 33 4
65 34 11
65 35 6
65 36 5
65 37 10
65 38 1
65 39 7
65 40 11
65 41 3
65 42 12
65 43 2
65 44 6
65 45 8
65 46 11
65 47 6
65 48 2
65 49 9
65 50 5
65 51 5
65 52 6
65 53 10
65 54 5
65 55 6
65 56 9
65 57 6
65 58 10
65 59 11
65 60 1
65 61 9
65 62 4
65 63 2
65 64 8
66 0 10
66 1 7
66 2 3
66 3 3
66 4 10
66 5 1
66 6 11
66 7 11
66 8 7
66 9 4
66 10 12
66 11 10
66 12 9
66 13 2
66 14 11
66 15 10
66 16 3
66 17 3
66 18 4
66 19 8
66 20 6
66 21 2
66 22 3
66 23 2
66 24 8
66 25 6
66 26 12
66 27 6
66 28 2
66 29 1
66 30 9
66 31 3
66 32 8
66 33 7
66 34 11
66 35 3
66 36 10
66 37 8
66 38 9
66 39 5
66 40 7
66 41 5
66 42 12
66 43 11
66 44 2
66 45 8
66 46 7
66 47 9
66 48 8
66 49 3
66 50 11
66 51 10
66 52 9
66 53 1
66 54 10
66 55 2
66 56 6
66 57 1
66 58 7
66 59 9
66 60 10
66 61 8
66 62 8
66 63 4
66 64 6
66 65 4
67 0 6
67 1 4
67 2 4
67 3 10
67 4 6
67 5 1
67 6 1
67 7 9
67 8 5
67 9 4
67 10 9
67 11 6
67 12 3
67 13 9
67 14 9
67 15 3
67 16 6
67 17 11
67 18 7
67 19 2
67 20 7
67 21 1
67 22 10
67 23 11
67 24 1
67 25 4
67 26 8
67 27 11
67 28 7
67 29 12
67 30 11
67 31 12
67 32 7
67 33 10
67 34 2
67 35 6
67 36 10
67 37 8
67 38 8
67 39 6
67 40 10
67 41 12
67 42 11
67 43 2
67 44 9
67 45 2
67 46 3
67 47 4
67 48 1
67 49 7
67 50 2
67 51 1
67 52 1
67 53 7
67 54 9
67 55 4
67 56 1
67 57 5
67 58 5
67 59 10
67 60 4
67 61 7
67 62 9
67 63 3
67 64 6
67 65 2
67 66 9
68 0 12
68 1 5
68 2 1
68 3 7
68 4 9
68 5 7
68 6 11
68 7 12
68 8 10
68 9 12
68 10 4
68 11 10
68 12 7
68 13 11
68 14 2
68 15 4
68 16 8
68 17 9
68 18 5
68 19 4
68 20 6
68 21 7
68 22 2
68 23 1
68 24 7
68 25 2
68 26 8
68 27 9
68 28 6
68 29 5
68 30 5
68 31 6
68 32 1
68 33 11
68 34 9
68 35 4
68 36 9
68 37 6
68 38 1
68 39 11
68 40 5
68 41 7
68 42 1
68 43 4
68 44 6
68 45 4
68 46 4
68 47 2
68 48 7
68 49 5
68 50 1
68 51 1
68 52 12
68 53 3
68 54 12
68 55 11
68 56 8
68 57 3
68 58 3
68 59 8
68 60 11
68 61 5
68 62 1
68 63 6
68 64 4
68 65 11
68 66 4
68 67 2
69 0 10
69 1 9
69 2 7
69 3 12
69 4 11
69 5 3
69 6 9
69 7 9
69 8 10
69 9 12
69 10 8
69 11 10
69 12 10
69 13 3
69 14 3
69 15 9
69 16 12
69 17 8
69 18 3
69 19 6
69 20 2
69 21 8
69 22 1
69 23 5
69 24 1
69 25 2
69 26 9
69 27 2
69 28 1
69 29 6
69 30 7
69 31 12
69 32 7
69 33 4
69 34 9
69 35 8
69 36 4
69 37 9
69 38 4
69 39 8
69 40 6
69 41 3
69 42 5
69 43 2
69 44 12
69 45 4
69 46 9
69 47 1
69 48 12
69 49 12
69 50 10
69 51 12
69 52 10
69 53 1
69 54 8
69 55 1
69 56 4
69 57 1
69 58 6
69 59 9
69 60 7
69 61 12
69 62 6
69 63 11
69 64 3
69 65 7
69 66 7
69 67 9
69 68 11
